p cnf 150 450
c t mc
3 1 0
3 -2 0
-1 2 -3 0
6 4 0
6 5 0
-4 -5 -6 0
7 -8 -9 0
-7 8 -9 0
7 8 9 0
-7 -8 9 0
6 -9 -10 0
-6 9 -10 0
6 9 10 0
-6 -9 10 0
-13 11 0
-13 -12 0
-11 12 13 0
-15 -13 0
-15 -14 0
13 14 15 0
-16 -17 -18 0
16 17 -18 0
-16 17 18 0
16 -17 18 0
11 -5 -19 0
-11 5 -19 0
11 5 19 0
-11 -5 19 0
18 -19 -20 0
-18 19 -20 0
18 19 20 0
-18 -19 20 0
-21 15 0
-21 20 0
-15 -20 21 0
20 18 -22 0
-20 -18 -22 0
20 -18 22 0
-20 18 22 0
21 -22 -23 0
-21 22 -23 0
21 22 23 0
-21 -22 23 0
26 25 0
26 14 0
-25 -14 -26 0
28 26 0
28 -27 0
-26 27 -28 0
-24 -28 -29 0
24 28 -29 0
-24 28 29 0
24 -28 29 0
31 30 0
31 25 0
-30 -25 -31 0
-32 24 0
-32 31 0
-24 -31 32 0
-29 32 -33 0
29 -32 -33 0
-29 -32 33 0
29 32 33 0
23 33 -34 0
-23 -33 -34 0
23 -33 34 0
-23 33 34 0
10 -34 -35 0
-10 34 -35 0
10 34 35 0
-10 -34 35 0
37 36 0
37 27 0
-36 -27 -37 0
39 -37 0
39 -38 0
37 38 -39 0
35 -39 -40 0
-35 39 -40 0
35 39 40 0
-35 -39 40 0
43 41 0
43 -42 0
-41 42 -43 0
44 38 0
44 -37 0
-38 37 -44 0
45 -43 0
45 -44 0
43 44 -45 0
46 25 0
46 -38 0
-25 38 -46 0
-47 45 0
-47 46 0
-45 -46 47 0
-38 -24 -48 0
38 24 -48 0
-38 24 48 0
38 -24 48 0
49 -47 0
49 -48 0
47 48 -49 0
-53 -30 0
-53 -52 0
30 52 53 0
54 -51 0
54 53 0
51 -53 -54 0
-55 -50 0
-55 54 0
50 -54 55 0
-56 -11 -57 0
56 11 -57 0
-56 11 57 0
56 -11 57 0
-55 57 -58 0
55 -57 -58 0
-55 -57 58 0
55 57 58 0
-59 56 -60 0
59 -56 -60 0
-59 -56 60 0
59 56 60 0
62 60 0
62 61 0
-60 -61 -62 0
-37 -63 -64 0
37 63 -64 0
-37 63 64 0
37 -63 64 0
-65 62 0
-65 64 0
-62 -64 65 0
-58 -65 -66 0
58 65 -66 0
-58 65 66 0
58 -65 66 0
68 51 0
68 67 0
-51 -67 -68 0
-69 -68 0
-69 -56 0
68 56 69 0
-72 70 0
-72 71 0
-70 -71 72 0
72 38 -73 0
-72 -38 -73 0
72 -38 73 0
-72 38 73 0
53 -73 -74 0
-53 73 -74 0
53 73 74 0
-53 -73 74 0
-74 37 -75 0
74 -37 -75 0
-74 -37 75 0
74 37 75 0
-72 -4 -76 0
72 4 -76 0
-72 4 76 0
72 -4 76 0
12 -77 0
-12 -77 0
-11 -77 -78 0
11 77 -78 0
-11 77 78 0
11 -77 78 0
79 76 0
79 -78 0
-76 78 -79 0
80 37 0
80 56 0
-37 -56 -80 0
81 79 0
81 80 0
-79 -80 -81 0
-82 -75 0
-82 81 0
75 -81 82 0
83 69 0
83 -82 0
-69 82 -83 0
-52 28 -84 0
52 -28 -84 0
-52 -28 84 0
52 28 84 0
-85 84 0
-85 -26 0
-84 26 85 0
-86 83 0
-86 -85 0
-83 85 86 0
12 -26 -87 0
-12 26 -87 0
12 26 87 0
-12 -26 87 0
-87 -16 -88 0
87 16 -88 0
-87 16 88 0
87 -16 88 0
-91 56 0
-91 -73 0
-56 73 91 0
90 -91 -92 0
-90 91 -92 0
90 91 92 0
-90 -91 92 0
89 -92 -93 0
-89 92 -93 0
89 92 93 0
-89 -92 93 0
-94 -88 0
-94 -93 0
88 93 94 0
95 13 -96 0
-95 -13 -96 0
95 -13 96 0
-95 13 96 0
-97 73 0
-97 51 0
-73 -51 97 0
96 -97 -98 0
-96 97 -98 0
96 97 98 0
-96 -97 98 0
-99 94 0
-99 98 0
-94 -98 99 0
-100 5 0
-100 36 0
-5 -36 100 0
101 -14 0
101 -72 0
14 72 -101 0
102 -52 0
102 73 0
52 -73 -102 0
103 101 0
103 102 0
-101 -102 -103 0
104 -100 0
104 -103 0
100 103 -104 0
-105 12 0
-105 -61 0
-12 61 105 0
25 -76 -106 0
-25 76 -106 0
25 76 106 0
-25 -76 106 0
-107 105 0
-107 -106 0
-105 106 107 0
-108 61 0
-108 -19 0
-61 19 108 0
-109 -107 0
-109 -108 0
107 108 109 0
-110 2 0
-110 -67 0
-2 67 110 0
111 110 0
111 1 0
-110 -1 -111 0
-112 -41 -113 0
112 41 -113 0
-112 41 113 0
112 -41 113 0
-111 -113 -114 0
111 113 -114 0
-111 113 114 0
111 -113 114 0
-115 109 0
-115 114 0
-109 -114 115 0
104 115 -116 0
-104 -115 -116 0
104 -115 116 0
-104 115 116 0
117 99 0
117 -116 0
-99 116 -117 0
118 86 0
118 117 0
-86 -117 -118 0
119 12 -120 0
-119 -12 -120 0
119 -12 120 0
-119 12 120 0
121 61 0
121 -1 0
-61 1 -121 0
122 112 0
122 -26 0
-112 26 -122 0
123 72 0
123 -122 0
-72 122 -123 0
-124 121 0
-124 123 0
-121 -123 124 0
-125 -71 0
-125 52 0
71 -52 125 0
-124 125 -126 0
124 -125 -126 0
-124 -125 126 0
124 125 126 0
127 -120 0
127 -126 0
120 126 -127 0
-128 -42 0
-128 -38 0
42 38 128 0
-63 -128 -129 0
63 128 -129 0
-63 128 129 0
63 -128 129 0
130 127 0
130 -129 0
-127 129 -130 0
-131 25 0
-131 -31 0
-25 31 131 0
-132 131 0
-132 -72 0
-131 72 132 0
134 132 0
134 133 0
-132 -133 -134 0
37 -11 -135 0
-37 11 -135 0
37 11 135 0
-37 -11 135 0
-135 -26 -136 0
135 26 -136 0
-135 26 136 0
135 -26 136 0
-134 136 -137 0
134 -136 -137 0
-134 -136 137 0
134 136 137 0
-138 63 0
-138 30 0
-63 -30 138 0
140 139 0
140 4 0
-139 -4 -140 0
-138 -140 -141 0
138 140 -141 0
-138 140 141 0
138 -140 141 0
-137 141 -142 0
137 -141 -142 0
-137 -141 142 0
137 141 142 0
-143 -73 0
-143 -53 0
73 53 143 0
-144 -142 0
-144 -143 0
142 143 144 0
-145 130 0
-145 144 0
-130 -144 145 0
146 -118 0
146 145 0
118 -145 -146 0
-66 -146 -147 0
66 146 -147 0
-66 146 147 0
66 -146 147 0
148 -49 0
148 -147 0
49 147 -148 0
149 -40 0
149 -148 0
40 148 -149 0
150 3 0
150 149 0
-3 -149 -150 0
114 25 54 137 -51 124 108 -132 0
-68 -135 3 -139 31 104 58 0
-89 13 27 137 -72 0
14 34 -129 -44 -110 93 127 122 -56 -115 0
102 -67 -54 5 0
-112 -10 94 60 0
44 -71 55 29 24 15 30 -120 0
21 112 51 107 0
-90 -138 0
38 107 -59 -150 138 97 17 0
-111 50 32 3 -70 -26 121 0
-145 -49 1 102 -119 9 -46 0
-16 -124 -66 139 -109 116 -80 -2 85 0
35 104 -145 -123 114 4 20 0
54 -21 28 1 57 0
67 -54 -94 -64 -29 22 -92 30 0
113 74 -125 -13 0
13 -123 -131 -26 -120 43 -12 62 -81 -134 0
48 139 -78 2 0
22 85 -11 55 -129 0
116 -120 46 -54 53 -123 106 -129 0
-140 90 -128 -97 93 35 62 129 39 0
-99 18 70 -45 19 -55 -11 36 -85 0
-104 136 -54 12 -140 -126 132 -5 0
8 6 47 0
117 -130 -86 -64 2 -137 -102 -103 -30 -135 0
67 -37 35 -111 105 90 -19 -43 -119 0
92 -52 27 149 40 0
-28 -35 -101 -49 0
-82 -15 31 -97 26 -40 -10 74 0
-28 63 102 -99 62 55 0
63 51 -121 -49 -125 -28 -119 -100 68 67 0
-112 -19 -78 -67 50 -127 51 54 -75 0
-98 -10 -2 0
-109 63 -86 -139 -90 -150 -95 -20 87 0
49 148 144 123 109 -13 0
-112 -134 150 117 59 -73 0
-53 -26 103 52 135 -37 137 -148 0
123 -6 -130 19 0
101 -46 -43 27 -146 -105 -16 -82 -103 115 0
-49 -59 -131 -56 60 37 -135 0
-84 96 34 47 0
-124 -40 -29 -131 -28 90 19 55 0
-104 -36 114 90 22 65 133 -130 0
89 -130 31 -57 0
-30 121 140 -84 -69 0
-80 39 -103 0
-121 3 -94 20 -92 -104 0
18 84 137 -10 -132 -145 22 0
16 5 -109 -50 7 0
-145 -139 8 50 0
75 77 53 -35 59 95 133 86 126 0
-82 -56 -115 66 -105 -90 0
2 -14 -76 70 83 0
130 68 -150 -114 -84 0
-47 -115 61 13 -50 3 149 -142 -53 0
-111 -103 46 39 -115 -1 -96 -89 -55 0
-137 -10 -34 111 -19 -89 -131 -74 -146 0
-116 -58 -39 0
-21 40 18 -74 0
-49 21 -122 143 -1 43 105 0
-1 56 76 62 29 -92 -130 100 0
-36 147 116 1 -20 -22 0
-19 -100 -63 -71 -18 56 0
-126 -148 -90 -123 0
150 0
